p edge 50 245
e 1 3
e 1 4
e 1 6
e 1 7
e 1 8
e 1 9
e 1 16
e 1 17
e 1 19
e 1 24
e 1 26
e 1 32
e 1 33
e 1 38
e 2 5
e 2 16
e 2 18
e 2 19
e 2 33
e 2 35
e 2 49
e 3 9
e 3 22
e 4 10
e 4 14
e 4 16
e 4 20
e 4 27
e 4 32
e 4 35
e 4 40
e 4 41
e 4 45
e 5 11
e 5 16
e 5 26
e 5 30
e 5 32
e 5 41
e 5 44
e 5 50
e 6 7
e 6 22
e 6 27
e 6 28
e 6 38
e 6 41
e 7 22
e 7 29
e 7 30
e 7 40
e 7 42
e 7 47
e 8 14
e 8 22
e 8 25
e 8 30
e 8 31
e 8 33
e 8 39
e 8 46
e 8 48
e 9 10
e 9 11
e 9 14
e 9 23
e 9 28
e 9 32
e 9 33
e 9 35
e 9 39
e 9 40
e 9 41
e 9 48
e 9 50
e 10 13
e 10 17
e 10 47
e 11 16
e 11 18
e 11 20
e 11 25
e 11 26
e 11 39
e 12 22
e 12 24
e 12 25
e 12 33
e 12 39
e 12 45
e 12 46
e 13 15
e 13 20
e 13 22
e 13 27
e 13 35
e 13 36
e 13 48
e 14 18
e 14 19
e 14 20
e 14 39
e 14 44
e 14 50
e 15 16
e 15 17
e 15 20
e 15 21
e 15 33
e 15 42
e 15 45
e 15 46
e 15 50
e 16 17
e 16 21
e 16 22
e 16 23
e 16 25
e 16 27
e 16 29
e 16 42
e 17 18
e 17 26
e 17 27
e 17 35
e 17 38
e 17 46
e 18 23
e 18 26
e 18 27
e 18 30
e 18 32
e 18 35
e 18 37
e 18 40
e 18 43
e 18 44
e 18 45
e 18 49
e 19 24
e 19 33
e 19 34
e 19 49
e 19 50
e 20 21
e 20 25
e 20 27
e 20 29
e 20 32
e 20 39
e 20 42
e 20 45
e 21 28
e 21 34
e 21 35
e 21 36
e 21 44
e 21 47
e 22 30
e 22 33
e 22 34
e 22 37
e 22 39
e 22 50
e 23 24
e 23 28
e 23 29
e 23 30
e 23 36
e 23 43
e 23 44
e 23 45
e 23 49
e 24 34
e 24 41
e 24 43
e 24 49
e 25 27
e 25 29
e 25 30
e 25 45
e 25 46
e 25 47
e 26 27
e 26 44
e 26 46
e 27 40
e 27 49
e 27 50
e 28 32
e 28 37
e 28 38
e 28 41
e 28 46
e 28 47
e 28 50
e 29 31
e 29 36
e 29 37
e 29 45
e 30 31
e 30 33
e 30 36
e 30 38
e 30 44
e 30 45
e 30 47
e 31 32
e 31 34
e 31 38
e 31 39
e 31 42
e 31 43
e 31 44
e 31 45
e 31 49
e 32 41
e 33 34
e 33 36
e 33 44
e 33 47
e 33 48
e 33 50
e 34 40
e 34 50
e 35 37
e 35 39
e 35 44
e 35 48
e 36 37
e 36 46
e 36 47
e 37 39
e 39 40
e 41 42
e 41 50
e 42 44
e 42 45
e 42 49
e 43 45
e 44 47
e 44 48
e 45 46
e 46 47
e 48 50
